This is Ipopt version 3.13.4, running with linear solver mumps.
NOTE: Other linear solvers might be more efficient (see Ipopt documentation).

Number of nonzeros in equality constraint Jacobian...:      481
Number of nonzeros in inequality constraint Jacobian.:        0
Number of nonzeros in Lagrangian Hessian.............:        0

Total number of variables............................:       37
                     variables with only lower bounds:        0
                variables with lower and upper bounds:       37
                     variables with only upper bounds:        0
Total number of equality constraints.................:       13
Total number of inequality constraints...............:        0
        inequality constraints with only lower bounds:        0
   inequality constraints with lower and upper bounds:        0
        inequality constraints with only upper bounds:        0

iter    objective    inf_pr   inf_du lg(mu)  ||d||  lg(rg) alpha_du alpha_pr  ls
   0  1.0211926e+00 5.68e-01 1.72e-03   0.0 0.00e+00    -  0.00e+00 0.00e+00   0
   1  1.0131338e+00 5.99e-01 1.80e+01  -0.2 9.29e-01    -  7.45e-01 6.00e-01f  1
   2  1.0133619e+00 6.70e-01 1.75e+01  -0.2 3.04e+00    -  1.77e-01 4.79e-02f  2
   3  1.0125480e+00 6.04e-01 4.45e+01  -0.3 1.59e+00    -  8.67e-01 4.46e-01h  1
   4  1.0103213e+00 5.17e-01 4.98e+01   0.2 2.65e+00    -  3.08e-01 1.33e-01h  1
   5  1.0073944e+00 3.96e-01 3.27e+02   0.4 2.80e+00    -  1.00e+00 1.99e-01h  1
   6  1.0073430e+00 2.76e-01 5.31e+02   0.6 4.79e+00    -  1.00e+00 2.50e-01h  1
   7  1.0097594e+00 6.10e-01 6.17e+03   1.9 1.54e+01    -  7.96e-01 2.62e-01f  1
   8  1.0091099e+00 7.03e-01 4.77e+03   1.6 4.81e+00    -  3.25e-01 1.90e-01f  1
   9  1.0076633e+00 6.14e-01 3.77e+03   1.6 1.27e+01    -  5.87e-01 2.98e-01f  1
iter    objective    inf_pr   inf_du lg(mu)  ||d||  lg(rg) alpha_du alpha_pr  ls
  10  1.0061587e+00 5.21e-01 2.87e+03   1.6 2.72e+00    -  2.33e-01 2.22e-01h  1
  11  1.0054142e+00 5.14e-01 3.68e+04   2.5 1.54e+01    -  7.51e-01 1.03e-01f  2
  12  1.0058849e+00 4.82e-01 6.99e+04   2.8 7.69e+00    -  9.97e-01 1.69e-01h  1
  13  1.0059470e+00 4.63e-01 7.63e+04   3.1 1.54e+01    -  2.95e-01 1.53e-01f  2
  14  1.0059042e+00 4.50e-01 7.81e+04   3.1 1.14e+01    -  1.39e-01 5.28e-02h  4
  15  1.0059159e+00 4.90e-01 7.52e+04  -3.1 1.07e+01    -  1.62e-01 3.01e-01h  1
  16  1.0064696e+00 4.48e-01 7.02e+04   3.1 1.70e+01    -  2.36e-01 8.26e-02f  1
  17  1.0063718e+00 3.54e-01 5.91e+04   3.1 8.87e+00    -  6.17e-01 4.13e-01f  1
  18  1.0063143e+00 3.49e-01 5.75e+04   3.1 1.74e+01    -  5.85e-02 1.97e-02h  4
  19  1.0060623e+00 3.29e-01 1.59e+05   2.0 2.02e+01    -  7.63e-02 6.30e-02h  2
iter    objective    inf_pr   inf_du lg(mu)  ||d||  lg(rg) alpha_du alpha_pr  ls
  20  1.0061031e+00 3.91e-01 4.90e+05   3.1 1.40e+01    -  6.61e-01 3.49e-01f  1
  21  1.0061013e+00 3.83e-01 5.26e+05   2.9 2.17e+00    -  1.82e-01 2.35e-02h  4
  22  1.0060965e+00 3.73e-01 7.84e+05   2.2 2.56e+00    -  2.88e-01 2.97e-02h  4
  23  1.0059706e+00 3.52e-01 7.02e+05   2.2 5.43e+00    -  2.39e-01 1.72e-01h  2
  24  1.0050345e+00 3.23e-01 1.53e+06   3.1 6.40e+00    -  4.44e-02 1.21e-01h  1
  25  1.0049821e+00 3.22e-01 1.50e+06   3.1 7.02e+00    -  1.91e-01 5.86e-03h  1
  26  1.0049746e+00 3.21e-01 1.53e+06   3.1 3.04e+01    -  1.23e-01 1.76e-02h  1
  27  1.0049005e+00 3.16e-01 2.64e+06   3.1 1.30e+01    -  1.82e-02 1.90e-02h  2
  28  1.0048666e+00 3.14e-01 1.07e+07   3.1 1.74e+01    -  2.66e-01 9.84e-03h  2
  29  1.0048658e+00 3.13e-01 1.72e+07   3.1 7.06e+01    -  3.53e-02 1.02e-03h  5
iter    objective    inf_pr   inf_du lg(mu)  ||d||  lg(rg) alpha_du alpha_pr  ls
  30  1.0048657e+00 3.13e-01 2.77e+07   3.1 5.59e+01    -  1.12e-02 2.91e-05h  9
  31  1.0048649e+00 6.23e-01 2.40e+07   3.1 1.10e+02    -  4.27e-03 2.98e-03f  2
  32  1.0048705e+00 4.42e-01 9.31e+08   3.1 5.97e+01    -  1.41e-02 2.72e-02h  1
  33  1.0048674e+00 3.80e-01 6.12e+08   3.1 4.82e+00    -  2.60e-01 2.54e-01h  1
  34  1.0048671e+00 3.79e-01 6.13e+08   3.1 1.30e+01    -  1.28e-01 3.54e-03h  1
  35  1.0048674e+00 3.97e-01 5.90e+08   3.1 1.50e+01    -  5.43e-01 8.00e-02f  3
  36  1.0048668e+00 4.35e-01 4.92e+08   3.1 2.51e+01    -  1.23e-01 5.20e-02f  2
  37  1.0048617e+00 4.32e-01 4.53e+08   3.1 1.22e+01    -  1.07e-01 8.76e-02h  1
  38  1.0048610e+00 4.32e-01 4.52e+08   3.1 2.72e+01    -  1.36e-03 6.39e-04h  1
  39  1.0048540e+00 4.30e-01 4.43e+08   3.1 3.23e+01    -  2.25e-04 1.22e-02h  1
iter    objective    inf_pr   inf_du lg(mu)  ||d||  lg(rg) alpha_du alpha_pr  ls
  40  1.0048505e+00 4.30e-01 4.43e+08   3.1 2.59e+01    -  8.06e-02 7.84e-04h  1
  41  1.0048509e+00 4.28e-01 4.43e+08   3.1 6.86e+01    -  2.64e-03 1.58e-03h  1
  42  1.0048508e+00 4.28e-01 4.43e+08   3.1 1.12e+02    -  2.08e-02 4.09e-04h  3
  43  1.0048481e+00 4.28e-01 4.36e+08   3.1 6.82e+01    -  1.32e-02 1.36e-03h  2
  44  1.0048481e+00 4.28e-01 4.35e+08   3.1 2.18e+02    -  2.53e-03 9.58e-05h  6
  45  1.0048478e+00 4.28e-01 7.62e+08   3.1 2.47e+02    -  3.61e-03 7.71e-05h  6
  46r 1.0048478e+00 4.28e-01 9.98e+02   3.1 0.00e+00    -  0.00e+00 2.80e-07R 14
  47r 1.0093494e+00 3.47e-01 3.40e+02   0.7 1.57e+00    -  8.10e-01 8.41e-01f  1
  48  1.0088752e+00 6.69e-01 6.00e+02  -0.0 2.23e+01    -  8.99e-02 1.84e-01f  1
  49  1.0084580e+00 6.22e-01 7.90e+02  -0.0 2.80e+00    -  4.70e-01 6.76e-02h  1
iter    objective    inf_pr   inf_du lg(mu)  ||d||  lg(rg) alpha_du alpha_pr  ls
  50  1.0082223e+00 5.36e-01 7.70e+02  -0.0 4.87e+00    -  8.83e-01 1.19e-01H  1

Number of Iterations....: 50

                                   (scaled)                 (unscaled)
Objective...............:   1.0082222914806485e+00    1.0082222914806485e+00
Dual infeasibility......:   7.6995985550175214e+02    7.6995985550175214e+02
Constraint violation....:   5.3569776955220882e-01    5.3569776955220882e-01
Complementarity.........:   2.2303482291366699e+00    2.2303482291366699e+00
Overall NLP error.......:   7.6995985550175214e+02    7.6995985550175214e+02


Number of objective function evaluations             = 144
Number of objective gradient evaluations             = 51
Number of equality constraint evaluations            = 144
Number of inequality constraint evaluations          = 0
Number of equality constraint Jacobian evaluations   = 52
Number of inequality constraint Jacobian evaluations = 0
Number of Lagrangian Hessian evaluations             = 0
Total CPU secs in IPOPT (w/o function evaluations)   =      3.388
Total CPU secs in NLP function evaluations           =    439.965

EXIT: Maximum Number of Iterations Exceeded.
